12° run output:
{
    "Function": "ClusterB300.tsp",
    "Problem dimension": [
        37,
        284,
        227,
        238,
        195,
        194,
        10,
        104,
        63,
        248,
        164,
        147,
        165,
        15,
        177,
        179,
        133,
        46,
        257,
        246,
        59,
        154,
        36,
        153,
        208,
        267,
        181,
        231,
        159,
        233,
        50,
        213,
        9,
        289,
        279,
        120,
        212,
        171,
        204,
        31,
        155,
        96,
        82,
        119,
        230,
        64,
        112,
        243,
        111,
        232,
        8,
        169,
        75,
        0,
        88,
        192,
        291,
        221,
        139,
        197,
        244,
        33,
        219,
        198,
        35,
        160,
        297,
        150,
        216,
        101,
        168,
        90,
        237,
        205,
        125,
        299,
        118,
        1,
        292,
        3,
        81,
        149,
        263,
        19,
        193,
        269,
        183,
        167,
        255,
        287,
        175,
        17,
        78,
        266,
        79,
        202,
        215,
        40,
        239,
        142,
        277,
        222,
        184,
        288,
        224,
        200,
        185,
        52,
        234,
        23,
        109,
        209,
        143,
        280,
        199,
        260,
        41,
        242,
        189,
        30,
        138,
        113,
        16,
        186,
        130,
        98,
        173,
        140,
        190,
        54,
        47,
        123,
        261,
        93,
        48,
        72,
        241,
        44,
        18,
        180,
        225,
        26,
        92,
        151,
        286,
        249,
        80,
        42,
        83,
        172,
        247,
        276,
        70,
        273,
        282,
        126,
        131,
        163,
        115,
        84,
        174,
        89,
        61,
        121,
        94,
        22,
        86,
        290,
        11,
        158,
        264,
        87,
        156,
        62,
        253,
        39,
        114,
        116,
        285,
        49,
        210,
        25,
        2,
        251,
        43,
        252,
        97,
        229,
        144,
        24,
        85,
        201,
        176,
        73,
        132,
        145,
        272,
        77,
        127,
        283,
        188,
        296,
        178,
        270,
        105,
        141,
        110,
        122,
        99,
        278,
        191,
        5,
        29,
        100,
        28,
        207,
        69,
        53,
        268,
        134,
        265,
        71,
        14,
        262,
        129,
        298,
        21,
        91,
        281,
        66,
        274,
        254,
        45,
        162,
        128,
        60,
        220,
        6,
        27,
        117,
        236,
        57,
        187,
        218,
        32,
        12,
        4,
        293,
        235,
        152,
        206,
        76,
        203,
        38,
        240,
        245,
        256,
        211,
        259,
        34,
        55,
        20,
        102,
        103,
        58,
        223,
        74,
        136,
        65,
        124,
        226,
        108,
        170,
        67,
        214,
        271,
        95,
        182,
        106,
        13,
        228,
        250,
        217,
        166,
        56,
        146,
        161,
        157,
        7,
        137,
        258,
        135,
        107,
        68,
        148,
        51,
        295,
        196,
        294,
        275
    ],
    "Global Optimum": 0,
    "Algorithm": "Genetic algorithm",
    "Parameters": {
        "population": 30,
        "offspring": 30,
        "mutation probability": 0.0033333333333333335,
        "crossover probability": 0.9
    },
    "Fitness": 277649,
    "Solution": [
        37,
        284,
        227,
        238,
        195,
        194,
        10,
        104,
        63,
        248,
        164,
        147,
        165,
        15,
        177,
        179,
        133,
        46,
        257,
        246,
        59,
        154,
        36,
        153,
        208,
        267,
        181,
        231,
        159,
        233,
        50,
        213,
        9,
        289,
        279,
        120,
        212,
        171,
        204,
        31,
        155,
        96,
        82,
        119,
        230,
        64,
        112,
        243,
        111,
        232,
        8,
        169,
        75,
        0,
        88,
        192,
        291,
        221,
        139,
        197,
        244,
        33,
        219,
        198,
        35,
        160,
        297,
        150,
        216,
        101,
        168,
        90,
        237,
        205,
        125,
        299,
        118,
        1,
        292,
        3,
        81,
        149,
        263,
        19,
        193,
        269,
        183,
        167,
        255,
        287,
        175,
        17,
        78,
        266,
        79,
        202,
        215,
        40,
        239,
        142,
        277,
        222,
        184,
        288,
        224,
        200,
        185,
        52,
        234,
        23,
        109,
        209,
        143,
        280,
        199,
        260,
        41,
        242,
        189,
        30,
        138,
        113,
        16,
        186,
        130,
        98,
        173,
        140,
        190,
        54,
        47,
        123,
        261,
        93,
        48,
        72,
        241,
        44,
        18,
        180,
        225,
        26,
        92,
        151,
        286,
        249,
        80,
        42,
        83,
        172,
        247,
        276,
        70,
        273,
        282,
        126,
        131,
        163,
        115,
        84,
        174,
        89,
        61,
        121,
        94,
        22,
        86,
        290,
        11,
        158,
        264,
        87,
        156,
        62,
        253,
        39,
        114,
        116,
        285,
        49,
        210,
        25,
        2,
        251,
        43,
        252,
        97,
        229,
        144,
        24,
        85,
        201,
        176,
        73,
        132,
        145,
        272,
        77,
        127,
        283,
        188,
        296,
        178,
        270,
        105,
        141,
        110,
        122,
        99,
        278,
        191,
        5,
        29,
        100,
        28,
        207,
        69,
        53,
        268,
        134,
        265,
        71,
        14,
        262,
        129,
        298,
        21,
        91,
        281,
        66,
        274,
        254,
        45,
        162,
        128,
        60,
        220,
        6,
        27,
        117,
        236,
        57,
        187,
        218,
        32,
        12,
        4,
        293,
        235,
        152,
        206,
        76,
        203,
        38,
        240,
        245,
        256,
        211,
        259,
        34,
        55,
        20,
        102,
        103,
        58,
        223,
        74,
        136,
        65,
        124,
        226,
        108,
        170,
        67,
        214,
        271,
        95,
        182,
        106,
        13,
        228,
        250,
        217,
        166,
        56,
        146,
        161,
        157,
        7,
        137,
        258,
        135,
        107,
        68,
        148,
        51,
        295,
        196,
        294,
        275
    ],
    "Nb of functions evaluations": 400020,
    "Computational time in seconds": 740.1080806255341,
    "Stopping criterion in evaluations": 400000
}